(set-info :smt-lib-version 2.6)
(set-logic QF_S)
(set-info :source |
Generated by: Murphy Berzish, Mitja Kulczynski, Federico Mora, Florin Manea, Joel Day, Dirk Nowotka, Vijay Ganesh, Zhengyang Lu
Generated on: 2020-10-01
Description: Translated from a collection of real-world regex queries, AutomataArk, collected by Loris D’Antoni and Fang Wang: https://github.com/lorisdanto/automatark
Application: Evaluate solvers on real-world regex queries
Target solver: Z3str3RE, CVC4, OSTRICH, Z3seq, Z3str3, Z3-Trau
Publications: Berzish, M., Kulczynski, M., Mora, F., Manea, F., Day, J. D., Nowotka, D., & Ganesh, V. (2021, July). An SMT solver for regular expressions and linear arithmetic over string length. In CAV 2021.
|)
(set-info :license "https://creativecommons.org/licenses/by/4.0/")
(set-info :category "industrial")
(set-info :status sat)

(declare-const X String)
(assert (str.in_re X (str.to_re "}{Port:Host:mqnqgijmng/ojNavhelperUser-Agent:\u{a}")))
(assert (not (str.in_re X (re.++ ((_ re.loop 3 3) (re.range "A" "Z")) ((_ re.loop 8 12) (re.union (re.range "0" "9") (re.range "A" "Z"))) (str.to_re "\u{a}")))))
(assert (not (str.in_re X (re.++ (str.to_re "/.appendChild") (re.* re.allchar) (str.to_re ".id") ((_ re.loop 0 200) re.allchar) (re.union (str.to_re "offset") (str.to_re "client")) (re.union (str.to_re "Height") (str.to_re "Left") (str.to_re "Parent") (str.to_re "Top") (str.to_re "Width")) ((_ re.loop 0 200) re.allchar) (re.union (str.to_re "offset") (str.to_re "client")) (re.union (str.to_re "Height") (str.to_re "Left") (str.to_re "Parent") (str.to_re "Top") (str.to_re "Width")) (str.to_re "/is\u{a}")))))
(assert (not (str.in_re X (re.++ (re.union (re.++ (re.opt (str.to_re "0")) (re.range "1" "9")) (re.++ (re.union (str.to_re "1") (str.to_re "2")) (re.range "0" "9")) (str.to_re "30") (str.to_re "31")) (str.to_re "\u{a}")))))
(check-sat)

(exit)
